%nprocs=24
%mem=20GB
%chk=sp1_gs_b3lyp.chk
#P CAM-B3LYP/def2TZVP opt freq=(noraman) scrf=(pcm,solvent=acetone) EmpiricalDispersion=GD3BJ gfinput

TITLE

0 1
6       -6.130450000      1.691740000     -0.834960000
6       -5.060200000      0.977790000     -0.284070000
6       -3.865300000      1.623670000      0.006290000
6       -3.770800000      2.995570000     -0.236400000
6       -4.825050000      3.720090000     -0.793020000
6       -6.010940000      3.057360000     -1.095570000
1       -5.210140000     -0.068670000     -0.060160000
1       -6.850400000      3.604430000     -1.516150000
1       -7.065990000      1.179540000     -1.045120000
1       -4.739770000      4.787200000     -0.972260000
7       -2.719160000      1.070050000      0.603590000
6       -1.685700000      2.158590000      0.603940000
6       -2.437280000      3.526130000      0.234690000
6       -2.283720000     -0.263960000      0.160870000
1       -1.233940000     -0.408430000      0.436090000
1       -2.334220000     -0.357510000     -0.931350000
6       -2.694950000      4.475690000      1.423370000
1       -3.279910000      3.996450000      2.216940000
1       -3.264420000      5.360090000      1.110950000
1       -1.754620000      4.838560000      1.852640000
6       -1.737220000      4.322670000     -0.881820000
1       -1.667210000      3.750350000     -1.814140000
1       -0.725560000      4.613100000     -0.577660000
1       -2.282260000      5.243560000     -1.121800000
8       -0.708270000      1.893490000     -0.437400000
6        0.560590000      1.517190000     -0.093880000
6       -1.113330000      2.152090000      2.009540000
6        0.159850000      1.882370000      2.309220000
6        1.038340000      1.500610000      1.219910000
1       -1.806360000      2.352810000      2.821030000
1        0.518720000      1.881080000      3.332040000
6        2.338020000      1.054720000      1.483960000
6        1.375590000      1.089780000     -1.145780000
6        2.665520000      0.620220000     -0.890060000
6        3.139980000      0.604100000      0.427330000
1        2.705570000      1.030130000      2.508170000
1        0.991090000      1.095130000     -2.163360000
1        3.276690000      0.264320000     -1.716900000
7        4.480380000      0.081320000      0.710750000
8        4.963980000      0.315030000      1.827870000
8        5.045040000     -0.567480000     -0.180500000
1       -2.933270054     -0.989821867      0.627356094




