%nprocs=24
%mem=20GB
%chk=mc1_gs_b3lyp.chk
#P CAM-B3LYP/def2TZVP opt freq=(noraman) scrf=(pcm,solvent=chloroform) EmpiricalDispersion=GD3BJ gfinput

TITLE

0 1
6       -2.722750000      2.819160000      0.985900000
6       -2.074500000      1.575820000      0.967290000
6       -0.729260000      1.470350000      0.587080000
6       -0.041530000      2.615890000      0.222560000
6       -0.703230000      3.856010000      0.250330000
6       -2.034720000      3.975500000      0.628120000
1       -3.769020000      2.880650000      1.274360000
1       -2.626900000      0.681460000      1.244510000
1       -2.532670000      4.939160000      0.633530000
1       -0.253850000      0.496890000      0.570430000
6        0.255270000      4.936120000     -0.211040000
6        1.515630000      4.086910000     -0.597900000
7        1.281810000      2.766090000     -0.218380000
6       -0.330380000      5.685150000     -1.421760000
1       -0.520770000      5.003990000     -2.260490000
1        0.344630000      6.470080000     -1.780700000
1       -1.279750000      6.172110000     -1.173020000
6        0.566160000      5.903150000      0.939570000
1        0.969880000      5.375980000      1.812520000
1       -0.334630000      6.434940000      1.266460000
1        1.301930000      6.658290000      0.640540000
6        2.525410000      4.692020000     -1.239600000
6        3.820800000      3.789430000     -3.148200000
6        2.663720000      3.149310000     -3.879310000
8        1.721010000      2.583370000     -3.343660000
6        2.742260000      3.147280000     -5.362670000
6        3.820880000      3.620930000     -6.000070000
6        4.970470000      4.123190000     -5.275230000
6        5.012980000      4.135510000     -3.929520000
6        2.115050000      1.599670000     -0.403970000
1        3.150700000      1.864750000     -0.632370000
1        1.736440000      0.966350000     -1.212990000
1        2.148860000      0.999600000      0.513540000
6        3.740080000      4.254570000     -1.883000000
1        2.449650000      5.777240000     -1.333810000
1        4.618770000      4.720200000     -1.434300000
1        5.863280000      4.546840000     -3.389420000
1        3.847130000      3.609780000     -7.086800000
1        1.887640000      2.733850000     -5.885720000
7        6.088210000      4.746260000     -6.001500000
8        6.989450000      5.286890000     -5.345070000
8        6.042290000      4.719070000     -7.239010000



