%nprocshared=24
%mem=20GB
%oldchk=sp1_gs_m062x.chk
%chk=sp1_s1_m062x.chk
#p M062X/def2TZVP SCRF(PCM,Solvent=acetonitrile) TD(Singlets,NStates=5, root=1) integral=ultrafine opt guess=(read) geom=(allcheck) gfinput 







